c This cnf file is generated with the following input: k = 3, n = 150, r = 0.2
p cnf 150 30
134 -127 -144 0
96 104 -16 0
-36 52 6 0
-74 43 28 0
-87 56 141 0
97 -36 135 0
68 117 57 0
83 21 -94 0
115 37 -94 0
-18 41 -110 0
33 -75 122 0
32 107 -48 0
97 -133 87 0
-130 -88 -106 0
119 136 123 0
-20 4 136 0
114 -52 31 0
-52 -74 -127 0
146 36 135 0
-20 4 121 0
-18 -100 -101 0
-51 -150 -142 0
-20 110 -95 0
-22 -135 121 0
97 -24 -92 0
67 119 39 0
83 -5 117 0
50 100 -80 0
104 8 15 0
5 -39 125 0
